benchmarks/VRPTW/TSPTW/solution/n100w60.004.txt.solution
1 94 58 42 98 82 9 59 39 75 53 35 13 84 41 5 50 70 80 25 47 55 66 95 11 23 2 100 30 67 31 26 96 21 81 79 27 38 17 61 92 86 57 15 36 19 85 77 60 20 69 44 48 64 40 52 72 73 7 32 87 29 90 22 51 65 56 49 46 91 54 71 74 78 43 68 12 18 33 14 37 88 8 10 93 16 99 3 83 97 62 89 28 45 76 24 6 4 101 34 63 
764
